101 653
1 50 76 77 68 80 12 28 26 40 21 73 72 74 22 41 75 56 23 67 39 25 55 4 54 24 29 3 79 34 78 33 81 51 9 35 71 65 66 20 30 70 31 88 7 82 48 19 11 62 10 32 90 63 64 49 36 47 46 8 45 84 17 5 60 83 18 52 89 6 13 95 94 96 99 59 100 91 44 14 38 86 16 61 85 93 98 37 92 97 87 42 43 15 57 2 58 53 101 27 69 
